
se = 80; % nombre de sessions
gr = 40; % nombre de grups de treball
cl = 12; % nombre de slots
minPapersPerSlot = 3; % minim nombre d'articles per sessio i slot
maxSesionsPar = 20; % maxim nombre de sessions paraleles

npMax = [5, 4, 6, 4, 5, 5, 6, 4, 6, 4, 3, 4]; % nombre maxim de papers per slot

np = [16, 11, 11, 15, 11, 8, 15, 8, 4, 11, 11, 5, 5, 7, 8, 12, 15, 11, 20, 3, 6, 14, 9, 18, 3, 6, 6, 11, 3, 12, 3, 3, 14, 6, 7, 13, 15, 11, 8, 7, 17, 15, 10, 9, 3, 6, 5, 7, 3, 6, 9, 18, 3, 11, 13, 12, 15, 3, 14, 9, 13, 13, 5, 15, 17, 13, 16, 4, 4, 15, 10, 11, 3, 5, 15, 18, 3, 14, 3, 17]; % nombre de papers acceptats a cada sessio

WG = [ {1}, {2}, {3}, {4}, {5,6,7}, {8}, {}, {}, {9}, {10}, {11}, {12,13,14}, {}, {15}, {16,17}, {18,19}, {20,21,22}, {}, {23}, {24}, {25}, {26}, {}, {27,28,29}, {30,31}, {32}, {33}, {34}, {}, {35}, {36}, {37,38}, {}, {39}, {40,1,2}, {}, {3}, {4}, {}, {5,6}, {}, {}, {7}, {8,9,10}, {11,12}, {13}, {14}, {}, {}, {}, {15,16}, {17}, {}, {18}, {19,20}, {21}, {22,23}, {}, {24}, {25}, {26}, {}, {27}, {28}, {29}, {}, {30}, {31,32,33}, {34}, {35}, {}, {36}, {37}, {38,39}, {40}, {1}, {2,3,4}, {5}, {6,7,8}, {9} ]; % grups per sessio

